num_posiciones_existentes=3;

ciudades=[|2, 2
|5, 5
|7, 7|];

tamano_matriz=9;

matriz_segmento_poblacion=[|14, 7, 3, 10, 12, 9, 5, 8, 4
                            |11, 6, 14, 12, 8, 7, 3, 10, 9
                            |7, 9, 12, 5, 15, 8, 14, 6, 10
                            |13, 10, 8, 4, 9, 15, 7, 12, 3
                            |9, 11, 7, 6, 10, 13, 4, 14, 8
                            |5, 8, 10, 3, 15, 12, 14, 7, 9
                            |6, 12, 9, 14, 11, 5, 10, 3, 7
                            |3, 15, 5, 8, 6, 10, 9, 4, 13
                            |12, 9, 13, 6, 3, 7, 8, 14, 5|];
                      

matriz_entorno_empresarial=[|11, 6, 8, 14, 5, 10, 7, 12, 9
                            |9, 5, 12, 15, 3, 8, 6, 13, 10
                            |8, 7, 4, 9, 14, 11, 13, 5, 6
                            |12, 3, 15, 8, 10, 5, 6, 7, 14
                            |10, 9, 5, 6, 13, 8, 12, 14, 3
                            |14, 11, 7, 12, 4, 9, 8, 3, 15
                            |6, 13, 10, 9, 15, 14, 4, 11, 8
                            |5, 14, 11, 7, 8, 3, 10, 6, 9
                            |7, 10, 15, 3, 6, 9, 12, 5, 8|];
                        


num_programas=4;